language ESSENCE' 1.0

letting n_boats be 7
letting n_periods be 6
letting crew_Function1D be [2, 2, 2, 2, 4, 4, 4; int(1..7)]
letting capacity_Function1D be [6, 8, 12, 12, 12, 12, 12; int(1..7)]
letting fin1 be 7
letting fin2 be 12
letting fin3 be 7
letting fin4 be 4
